c Generated encoding file
p cnf 35 65
-1 -2 3 0
-4 -5 3 0
-6 -7 3 0
-8 -5 2 0
-9 -7 2 0
-10 -7 5 0
-11 -12 13 0
-14 -15 13 0
-16 -17 13 0
-8 -15 12 0
-9 -17 12 0
-10 -17 15 0
-13 -1 11 0
-14 -18 11 0
-16 -19 11 0
-4 -18 1 0
-6 -19 1 0
-10 -19 18 0
-13 -4 14 0
-11 -8 14 0
-16 -20 14 0
-1 -8 4 0
-6 -20 4 0
-9 -20 8 0
-13 -6 16 0
-11 -9 16 0
-14 -10 16 0
-1 -9 6 0
-4 -10 6 0
-8 -10 9 0
-13 -3 0
-11 -2 0
-14 -5 0
-16 -7 0
-1 -12 0
-4 -15 0
-6 -17 0
-8 -18 0
-9 -19 0
-10 -20 0
-21 -22 -13 23 0
-21 -3 -11 23 0
-21 -3 -14 23 0
-21 -2 -14 23 0
-21 -5 -16 23 0
-24 -13 -25 26 0
-24 -25 -1 26 0
-24 -25 -4 26 0
-24 -12 -4 26 0
-24 -15 -6 26 0
-27 -11 -12 28 0
-27 -1 -29 28 0
-27 -1 -8 28 0
-27 -29 -8 28 0
-27 -18 -9 28 0
-30 -14 -15 31 0
-30 -4 -18 31 0
-30 -4 -32 31 0
-30 -8 -32 31 0
-30 -32 -10 31 0
-33 -16 -17 34 0
-33 -6 -19 34 0
-33 -6 -20 34 0
-33 -9 -20 34 0
-33 -10 -35 34 0
